25 2 0.090000 30 44429179.858799
20000 4000 
job dur in out mand hot_point profit q_r1 q_r2 q_p p1 l1 p2 l2
0 1 2 29 0 11 -60280.000000 20 0 2 342 1 417 0 
1 1 3 29 0 9 -60280.000000 20 0 1 291 0 
2 1 29 29 0 -1 5850000.000000 0 19113 0 
3 1 17 29 0 -1 5350000.000000 0 8187 2 427 1 464 0 
4 1 5 29 0 -1 5600000.000000 0 33641 2 74 0 430 1 
5 1 1 29 0 2 -75558.260777 0 0 2 350 0 355 1 
6 1 2 29 0 8 -81340.000000 10 0 1 136 0 
7 1 2 29 0 9 -60280.000000 20 0 3 35 1 171 1 395 0 
8 1 1 29 0 7 -81340.000000 10 0 2 6 1 235 0 
9 1 2 29 0 8 -81340.000000 10 0 2 53 0 138 1 
10 1 2 29 0 9 -60280.000000 20 0 1 31 0 
11 1 4 29 0 -1 -150151.829447 0 0 1 326 0 
12 1 2 29 0 -1 -60280.000000 20 0 1 179 0 
13 1 9 29 0 -1 4100000.000000 0 12762 0 
14 1 3 29 0 -1 -60280.000000 20 0 2 241 0 342 1 
15 1 0 29 0 0 -81340.000000 10 0 3 37 0 168 1 408 1 
16 1 1 29 0 7 -81340.000000 10 0 2 156 0 313 1 
17 1 3 29 0 9 -60280.000000 20 0 1 447 0 
18 1 2 29 0 8 -81340.000000 10 0 4 137 1 138 1 269 2 308 0 
19 1 0 29 0 1 -81340.000000 10 0 2 52 1 152 0 
20 1 3 29 0 -1 -60280.000000 20 0 2 35 0 57 0 
21 1 3 29 0 -1 -60280.000000 20 0 3 34 0 267 1 434 0 
22 1 0 29 0 6 -81340.000000 10 0 2 113 1 468 0 
23 1 0 29 0 7 -81340.000000 10 0 3 94 1 112 0 431 1 
24 1 0 29 0 0 -81340.000000 10 0 2 367 0 409 1 
